c File: data_files/evolved_graphs/g3685.col
c
c Auto generated graph
c
p edge 100 1908
e 1 2
e 1 4
e 1 5
e 1 6
e 1 7
e 1 15
e 1 17
e 1 25
e 1 30
e 1 41
e 1 50
e 1 63
e 1 66
e 1 69
e 1 71
e 1 72
e 1 77
e 1 86
e 1 91
e 1 93
e 1 94
e 2 3
e 2 5
e 2 6
e 2 20
e 2 26
e 2 36
e 2 39
e 2 54
e 2 69
e 2 80
e 2 81
e 2 85
e 3 5
e 3 8
e 3 23
e 3 30
e 3 31
e 3 32
e 3 39
e 3 40
e 3 41
e 3 44
e 3 47
e 3 49
e 3 50
e 3 53
e 3 56
e 3 61
e 3 63
e 3 64
e 3 65
e 3 66
e 3 67
e 3 68
e 3 69
e 3 72
e 3 73
e 3 74
e 3 75
e 3 76
e 3 77
e 3 79
e 3 80
e 3 81
e 3 82
e 3 83
e 3 84
e 3 85
e 3 86
e 3 87
e 3 91
e 3 92
e 3 96
e 3 97
e 3 98
e 3 100
e 4 5
e 4 7
e 4 10
e 4 11
e 4 22
e 4 23
e 4 27
e 4 29
e 4 31
e 4 37
e 4 38
e 4 40
e 4 41
e 4 43
e 4 44
e 4 45
e 4 48
e 4 49
e 4 50
e 4 52
e 4 56
e 4 59
e 4 61
e 4 63
e 4 65
e 4 67
e 4 69
e 4 70
e 4 72
e 4 75
e 4 77
e 4 78
e 4 79
e 4 81
e 4 82
e 4 83
e 4 84
e 4 85
e 4 87
e 4 89
e 4 90
e 4 91
e 4 93
e 4 95
e 4 97
e 4 98
e 4 99
e 4 100
e 5 13
e 5 14
e 5 15
e 5 19
e 5 21
e 5 23
e 5 25
e 5 26
e 5 27
e 5 30
e 5 37
e 5 40
e 5 43
e 5 44
e 5 46
e 5 48
e 5 50
e 5 51
e 5 53
e 5 54
e 5 55
e 5 57
e 5 58
e 5 61
e 5 62
e 5 64
e 5 68
e 5 69
e 5 70
e 5 75
e 5 76
e 5 82
e 5 85
e 5 87
e 5 89
e 5 93
e 5 94
e 5 95
e 5 97
e 5 99
e 6 9
e 6 10
e 6 11
e 6 13
e 6 16
e 6 17
e 6 21
e 6 22
e 6 23
e 6 24
e 6 26
e 6 28
e 6 29
e 6 36
e 6 38
e 6 42
e 6 43
e 6 45
e 6 46
e 6 48
e 6 49
e 6 50
e 6 52
e 6 54
e 6 56
e 6 57
e 6 60
e 6 64
e 6 66
e 6 68
e 6 69
e 6 72
e 6 73
e 6 74
e 6 77
e 6 78
e 6 80
e 6 82
e 6 83
e 6 85
e 6 87
e 6 89
e 6 90
e 6 91
e 6 94
e 6 96
e 6 98
e 6 100
e 7 8
e 7 9
e 7 11
e 7 14
e 7 15
e 7 20
e 7 23
e 7 27
e 7 34
e 7 40
e 7 41
e 7 43
e 7 49
e 7 51
e 7 54
e 7 55
e 7 56
e 7 57
e 7 58
e 7 59
e 7 60
e 7 61
e 7 62
e 7 64
e 7 65
e 7 66
e 7 68
e 7 69
e 7 70
e 7 74
e 7 75
e 7 76
e 7 77
e 7 78
e 7 80
e 7 81
e 7 83
e 7 86
e 7 87
e 7 88
e 7 89
e 7 91
e 7 92
e 7 94
e 7 95
e 7 96
e 7 97
e 8 13
e 8 17
e 8 18
e 8 23
e 8 29
e 8 30
e 8 32
e 8 34
e 8 35
e 8 39
e 8 40
e 8 42
e 8 43
e 8 46
e 8 50
e 8 52
e 8 53
e 8 54
e 8 56
e 8 58
e 8 59
e 8 60
e 8 62
e 8 68
e 8 69
e 8 70
e 8 73
e 8 74
e 8 78
e 8 81
e 8 82
e 8 83
e 8 84
e 8 86
e 8 87
e 8 91
e 8 93
e 8 95
e 8 96
e 8 97
e 8 99
e 8 100
e 9 13
e 9 21
e 9 23
e 9 24
e 9 26
e 9 28
e 9 33
e 9 35
e 9 37
e 9 38
e 9 41
e 9 42
e 9 43
e 9 45
e 9 46
e 9 47
e 9 48
e 9 49
e 9 51
e 9 52
e 9 56
e 9 62
e 9 63
e 9 65
e 9 69
e 9 71
e 9 74
e 9 75
e 9 79
e 9 80
e 9 81
e 9 83
e 9 84
e 9 85
e 9 86
e 9 87
e 9 89
e 9 90
e 9 92
e 9 94
e 9 95
e 10 11
e 10 14
e 10 19
e 10 20
e 10 23
e 10 27
e 10 29
e 10 31
e 10 32
e 10 33
e 10 37
e 10 41
e 10 42
e 10 44
e 10 45
e 10 47
e 10 48
e 10 50
e 10 51
e 10 52
e 10 58
e 10 60
e 10 62
e 10 64
e 10 65
e 10 66
e 10 69
e 10 71
e 10 74
e 10 76
e 10 77
e 10 78
e 10 79
e 10 80
e 10 83
e 10 84
e 10 86
e 10 87
e 10 88
e 10 90
e 10 91
e 10 93
e 10 95
e 10 98
e 10 99
e 10 100
e 11 15
e 11 16
e 11 20
e 11 21
e 11 22
e 11 24
e 11 25
e 11 26
e 11 27
e 11 29
e 11 32
e 11 34
e 11 35
e 11 36
e 11 41
e 11 43
e 11 44
e 11 48
e 11 52
e 11 54
e 11 56
e 11 60
e 11 61
e 11 63
e 11 65
e 11 68
e 11 71
e 11 72
e 11 73
e 11 74
e 11 75
e 11 76
e 11 77
e 11 78
e 11 79
e 11 81
e 11 82
e 11 83
e 11 85
e 11 87
e 11 88
e 11 89
e 11 90
e 11 93
e 11 97
e 12 13
e 12 16
e 12 19
e 12 20
e 12 23
e 12 27
e 12 29
e 12 30
e 12 34
e 12 38
e 12 41
e 12 42
e 12 43
e 12 44
e 12 49
e 12 50
e 12 53
e 12 55
e 12 58
e 12 59
e 12 63
e 12 65
e 12 66
e 12 67
e 12 68
e 12 69
e 12 70
e 12 71
e 12 72
e 12 73
e 12 74
e 12 77
e 12 83
e 12 85
e 12 87
e 12 88
e 12 89
e 12 91
e 12 95
e 12 97
e 12 98
e 12 99
e 12 100
e 13 16
e 13 20
e 13 22
e 13 23
e 13 27
e 13 28
e 13 32
e 13 37
e 13 38
e 13 40
e 13 42
e 13 43
e 13 44
e 13 45
e 13 48
e 13 51
e 13 54
e 13 55
e 13 58
e 13 59
e 13 60
e 13 62
e 13 63
e 13 65
e 13 69
e 13 72
e 13 73
e 13 74
e 13 75
e 13 77
e 13 79
e 13 81
e 13 82
e 13 84
e 13 86
e 13 90
e 13 91
e 13 92
e 13 93
e 13 94
e 13 95
e 13 96
e 13 99
e 13 100
e 14 16
e 14 17
e 14 18
e 14 21
e 14 22
e 14 28
e 14 29
e 14 31
e 14 34
e 14 37
e 14 39
e 14 41
e 14 42
e 14 43
e 14 44
e 14 46
e 14 47
e 14 48
e 14 50
e 14 51
e 14 52
e 14 53
e 14 55
e 14 58
e 14 60
e 14 61
e 14 63
e 14 65
e 14 68
e 14 69
e 14 71
e 14 72
e 14 73
e 14 74
e 14 76
e 14 80
e 14 82
e 14 84
e 14 85
e 14 86
e 14 89
e 14 90
e 14 91
e 14 93
e 14 95
e 14 97
e 14 99
e 14 100
e 15 20
e 15 21
e 15 22
e 15 23
e 15 26
e 15 27
e 15 29
e 15 31
e 15 39
e 15 43
e 15 44
e 15 45
e 15 46
e 15 47
e 15 48
e 15 50
e 15 51
e 15 52
e 15 55
e 15 56
e 15 61
e 15 62
e 15 66
e 15 69
e 15 70
e 15 72
e 15 75
e 15 76
e 15 77
e 15 79
e 15 80
e 15 81
e 15 82
e 15 85
e 15 88
e 15 90
e 15 91
e 15 92
e 15 93
e 15 94
e 15 95
e 15 96
e 15 97
e 15 98
e 15 100
e 16 19
e 16 25
e 16 27
e 16 32
e 16 37
e 16 42
e 16 44
e 16 45
e 16 46
e 16 51
e 16 52
e 16 54
e 16 58
e 16 59
e 16 60
e 16 63
e 16 65
e 16 66
e 16 67
e 16 69
e 16 71
e 16 72
e 16 73
e 16 75
e 16 76
e 16 77
e 16 79
e 16 80
e 16 81
e 16 83
e 16 84
e 16 88
e 16 91
e 16 92
e 16 93
e 16 94
e 16 96
e 16 97
e 16 100
e 17 18
e 17 19
e 17 20
e 17 22
e 17 23
e 17 24
e 17 26
e 17 28
e 17 29
e 17 31
e 17 33
e 17 35
e 17 37
e 17 38
e 17 40
e 17 42
e 17 45
e 17 47
e 17 53
e 17 54
e 17 55
e 17 56
e 17 57
e 17 60
e 17 62
e 17 64
e 17 66
e 17 71
e 17 72
e 17 75
e 17 79
e 17 82
e 17 83
e 17 84
e 17 86
e 17 88
e 17 90
e 17 91
e 17 94
e 17 95
e 17 98
e 17 100
e 18 19
e 18 21
e 18 24
e 18 34
e 18 35
e 18 37
e 18 38
e 18 43
e 18 50
e 18 55
e 18 56
e 18 58
e 18 59
e 18 60
e 18 61
e 18 62
e 18 66
e 18 67
e 18 68
e 18 69
e 18 71
e 18 72
e 18 73
e 18 75
e 18 81
e 18 83
e 18 84
e 18 86
e 18 87
e 18 88
e 18 89
e 18 90
e 18 91
e 18 92
e 18 95
e 18 97
e 18 99
e 18 100
e 19 22
e 19 28
e 19 32
e 19 33
e 19 43
e 19 46
e 19 48
e 19 49
e 19 50
e 19 54
e 19 55
e 19 56
e 19 57
e 19 60
e 19 63
e 19 64
e 19 67
e 19 68
e 19 69
e 19 73
e 19 79
e 19 80
e 19 81
e 19 82
e 19 83
e 19 84
e 19 85
e 19 86
e 19 87
e 19 89
e 19 90
e 19 91
e 19 94
e 19 95
e 19 98
e 19 100
e 20 21
e 20 23
e 20 34
e 20 36
e 20 38
e 20 41
e 20 42
e 20 43
e 20 44
e 20 48
e 20 51
e 20 54
e 20 57
e 20 61
e 20 62
e 20 65
e 20 66
e 20 68
e 20 71
e 20 72
e 20 73
e 20 74
e 20 79
e 20 80
e 20 81
e 20 82
e 20 86
e 20 87
e 20 88
e 20 89
e 20 90
e 20 91
e 20 93
e 20 97
e 20 99
e 21 22
e 21 23
e 21 24
e 21 27
e 21 29
e 21 34
e 21 36
e 21 37
e 21 39
e 21 40
e 21 43
e 21 46
e 21 51
e 21 54
e 21 58
e 21 60
e 21 61
e 21 62
e 21 63
e 21 64
e 21 71
e 21 72
e 21 74
e 21 75
e 21 77
e 21 78
e 21 82
e 21 83
e 21 84
e 21 85
e 21 88
e 21 89
e 21 90
e 21 91
e 21 92
e 21 93
e 21 95
e 21 96
e 21 97
e 21 98
e 21 99
e 21 100
e 22 23
e 22 27
e 22 28
e 22 38
e 22 41
e 22 42
e 22 46
e 22 47
e 22 51
e 22 53
e 22 58
e 22 61
e 22 62
e 22 63
e 22 69
e 22 70
e 22 71
e 22 73
e 22 74
e 22 75
e 22 77
e 22 78
e 22 83
e 22 87
e 22 90
e 22 91
e 22 92
e 22 93
e 22 94
e 22 95
e 22 96
e 22 99
e 22 100
e 23 29
e 23 31
e 23 36
e 23 40
e 23 43
e 23 45
e 23 47
e 23 54
e 23 57
e 23 61
e 23 62
e 23 63
e 23 64
e 23 65
e 23 68
e 23 70
e 23 73
e 23 76
e 23 77
e 23 78
e 23 81
e 23 82
e 23 83
e 23 85
e 23 86
e 23 87
e 23 88
e 23 90
e 23 92
e 23 95
e 23 96
e 23 99
e 23 100
e 24 25
e 24 28
e 24 29
e 24 31
e 24 33
e 24 34
e 24 39
e 24 43
e 24 46
e 24 47
e 24 48
e 24 49
e 24 50
e 24 51
e 24 53
e 24 55
e 24 57
e 24 58
e 24 59
e 24 62
e 24 65
e 24 67
e 24 74
e 24 75
e 24 78
e 24 79
e 24 81
e 24 82
e 24 83
e 24 86
e 24 87
e 24 88
e 24 92
e 24 96
e 24 99
e 24 100
e 25 29
e 25 34
e 25 42
e 25 43
e 25 49
e 25 50
e 25 52
e 25 57
e 25 58
e 25 60
e 25 61
e 25 62
e 25 63
e 25 66
e 25 69
e 25 70
e 25 71
e 25 72
e 25 74
e 25 75
e 25 77
e 25 79
e 25 80
e 25 81
e 25 82
e 25 83
e 25 84
e 25 88
e 25 89
e 25 90
e 25 91
e 25 95
e 25 96
e 25 98
e 25 99
e 26 28
e 26 30
e 26 32
e 26 35
e 26 39
e 26 43
e 26 46
e 26 49
e 26 50
e 26 58
e 26 59
e 26 60
e 26 63
e 26 65
e 26 70
e 26 71
e 26 74
e 26 75
e 26 78
e 26 80
e 26 81
e 26 84
e 26 86
e 26 90
e 26 93
e 26 94
e 26 95
e 26 97
e 26 99
e 27 28
e 27 34
e 27 36
e 27 37
e 27 38
e 27 39
e 27 40
e 27 50
e 27 51
e 27 53
e 27 54
e 27 55
e 27 65
e 27 68
e 27 72
e 27 74
e 27 77
e 27 80
e 27 81
e 27 84
e 27 89
e 27 90
e 27 92
e 27 93
e 27 98
e 27 99
e 28 30
e 28 32
e 28 38
e 28 40
e 28 41
e 28 42
e 28 46
e 28 55
e 28 56
e 28 60
e 28 62
e 28 63
e 28 65
e 28 68
e 28 69
e 28 71
e 28 73
e 28 79
e 28 82
e 28 83
e 28 86
e 28 89
e 28 90
e 28 94
e 28 95
e 28 97
e 29 32
e 29 33
e 29 35
e 29 36
e 29 37
e 29 38
e 29 41
e 29 44
e 29 45
e 29 49
e 29 53
e 29 58
e 29 59
e 29 63
e 29 66
e 29 67
e 29 68
e 29 69
e 29 70
e 29 74
e 29 76
e 29 83
e 29 84
e 29 87
e 29 96
e 30 31
e 30 35
e 30 37
e 30 42
e 30 44
e 30 46
e 30 51
e 30 54
e 30 57
e 30 63
e 30 70
e 30 71
e 30 73
e 30 74
e 30 77
e 30 80
e 30 81
e 30 83
e 30 87
e 30 88
e 30 90
e 30 92
e 30 93
e 30 96
e 30 100
e 31 32
e 31 33
e 31 38
e 31 40
e 31 46
e 31 51
e 31 53
e 31 56
e 31 57
e 31 58
e 31 59
e 31 60
e 31 63
e 31 66
e 31 68
e 31 73
e 31 75
e 31 76
e 31 77
e 31 81
e 31 84
e 31 86
e 31 90
e 31 92
e 31 93
e 31 98
e 31 99
e 32 35
e 32 36
e 32 44
e 32 49
e 32 50
e 32 53
e 32 55
e 32 59
e 32 60
e 32 64
e 32 65
e 32 68
e 32 70
e 32 77
e 32 80
e 32 86
e 32 91
e 32 94
e 32 99
e 33 35
e 33 36
e 33 37
e 33 40
e 33 41
e 33 43
e 33 48
e 33 50
e 33 54
e 33 55
e 33 56
e 33 57
e 33 58
e 33 60
e 33 61
e 33 63
e 33 66
e 33 68
e 33 74
e 33 76
e 33 77
e 33 78
e 33 82
e 33 85
e 33 88
e 33 95
e 33 96
e 33 98
e 33 100
e 34 43
e 34 44
e 34 46
e 34 48
e 34 50
e 34 53
e 34 60
e 34 62
e 34 63
e 34 64
e 34 66
e 34 68
e 34 76
e 34 78
e 34 79
e 34 80
e 34 83
e 34 94
e 34 96
e 34 99
e 35 38
e 35 45
e 35 46
e 35 48
e 35 55
e 35 57
e 35 59
e 35 61
e 35 64
e 35 66
e 35 71
e 35 72
e 35 77
e 35 80
e 35 92
e 35 95
e 35 96
e 35 97
e 36 37
e 36 40
e 36 48
e 36 49
e 36 59
e 36 60
e 36 64
e 36 68
e 36 69
e 36 76
e 36 79
e 36 83
e 36 87
e 36 88
e 36 89
e 36 90
e 36 93
e 36 95
e 36 97
e 36 99
e 36 100
e 37 45
e 37 46
e 37 47
e 37 48
e 37 51
e 37 57
e 37 59
e 37 63
e 37 64
e 37 70
e 37 73
e 37 76
e 37 79
e 37 81
e 37 87
e 37 89
e 37 93
e 38 41
e 38 42
e 38 43
e 38 45
e 38 49
e 38 50
e 38 52
e 38 53
e 38 55
e 38 59
e 38 60
e 38 66
e 38 67
e 38 69
e 38 70
e 38 71
e 38 72
e 38 74
e 38 76
e 38 78
e 38 82
e 38 83
e 38 84
e 38 86
e 38 87
e 38 88
e 38 90
e 38 92
e 38 94
e 38 95
e 38 98
e 38 100
e 39 63
e 39 64
e 39 69
e 39 70
e 39 76
e 39 78
e 39 80
e 39 89
e 39 92
e 40 41
e 40 43
e 40 46
e 40 47
e 40 57
e 40 60
e 40 61
e 40 62
e 40 63
e 40 65
e 40 67
e 40 75
e 40 76
e 40 78
e 40 87
e 40 88
e 40 100
e 41 44
e 41 47
e 41 48
e 41 55
e 41 57
e 41 58
e 41 67
e 41 70
e 41 73
e 41 78
e 41 81
e 41 83
e 41 91
e 41 96
e 41 98
e 42 43
e 42 49
e 42 53
e 42 64
e 42 65
e 42 66
e 42 69
e 42 73
e 42 78
e 42 85
e 42 86
e 42 87
e 42 88
e 42 90
e 42 91
e 42 99
e 43 52
e 43 54
e 43 55
e 43 57
e 43 64
e 43 66
e 43 68
e 43 72
e 43 76
e 43 79
e 43 83
e 43 85
e 43 87
e 43 88
e 43 89
e 43 90
e 43 91
e 43 97
e 44 47
e 44 54
e 44 62
e 44 69
e 44 73
e 44 75
e 44 77
e 44 80
e 44 87
e 44 88
e 44 97
e 44 98
e 45 46
e 45 48
e 45 52
e 45 55
e 45 63
e 45 65
e 45 73
e 45 75
e 45 76
e 45 78
e 45 79
e 45 80
e 45 81
e 45 86
e 45 87
e 45 91
e 45 92
e 45 93
e 45 96
e 46 48
e 46 56
e 46 57
e 46 58
e 46 59
e 46 62
e 46 63
e 46 65
e 46 67
e 46 75
e 46 77
e 46 78
e 46 81
e 46 82
e 46 84
e 46 87
e 46 90
e 46 91
e 46 93
e 46 95
e 46 99
e 47 49
e 47 52
e 47 53
e 47 55
e 47 56
e 47 58
e 47 59
e 47 61
e 47 63
e 47 65
e 47 66
e 47 67
e 47 71
e 47 75
e 47 81
e 47 87
e 47 89
e 48 50
e 48 52
e 48 55
e 48 57
e 48 74
e 48 75
e 48 79
e 48 80
e 48 81
e 48 82
e 48 85
e 48 90
e 48 91
e 48 92
e 48 93
e 48 97
e 48 98
e 48 99
e 49 50
e 49 52
e 49 54
e 49 63
e 49 68
e 49 70
e 49 72
e 49 75
e 49 76
e 49 79
e 49 80
e 49 84
e 49 87
e 49 93
e 49 94
e 49 96
e 49 97
e 49 99
e 49 100
e 50 59
e 50 61
e 50 67
e 50 73
e 50 74
e 50 76
e 50 78
e 50 79
e 50 80
e 50 84
e 50 85
e 50 87
e 50 89
e 50 94
e 50 97
e 50 99
e 51 53
e 51 56
e 51 57
e 51 62
e 51 63
e 51 65
e 51 68
e 51 69
e 51 72
e 51 76
e 51 84
e 51 86
e 51 88
e 51 91
e 51 93
e 51 96
e 51 98
e 52 53
e 52 56
e 52 59
e 52 60
e 52 62
e 52 63
e 52 66
e 52 68
e 52 70
e 52 75
e 52 83
e 52 85
e 52 91
e 52 97
e 52 98
e 53 56
e 53 58
e 53 60
e 53 64
e 53 67
e 53 71
e 53 78
e 53 79
e 53 81
e 53 83
e 53 85
e 53 88
e 53 90
e 53 92
e 53 93
e 53 94
e 53 97
e 53 100
e 54 55
e 54 56
e 54 59
e 54 61
e 54 64
e 54 65
e 54 70
e 54 72
e 54 73
e 54 74
e 54 79
e 54 81
e 54 82
e 54 85
e 54 89
e 55 56
e 55 60
e 55 62
e 55 71
e 55 85
e 55 86
e 55 87
e 55 90
e 55 91
e 56 61
e 56 65
e 56 67
e 56 70
e 56 71
e 56 84
e 56 87
e 56 90
e 56 93
e 56 95
e 56 96
e 57 60
e 57 63
e 57 64
e 57 65
e 57 67
e 57 68
e 57 72
e 57 74
e 57 77
e 57 79
e 57 81
e 57 90
e 57 91
e 57 93
e 58 60
e 58 61
e 58 63
e 58 65
e 58 70
e 58 71
e 58 80
e 58 85
e 58 90
e 58 95
e 58 98
e 58 99
e 58 100
e 59 61
e 59 66
e 59 70
e 59 72
e 59 77
e 59 79
e 59 80
e 59 84
e 59 86
e 59 87
e 59 89
e 59 90
e 59 95
e 59 98
e 59 100
e 60 62
e 60 63
e 60 66
e 60 79
e 60 81
e 60 84
e 60 86
e 60 88
e 60 89
e 60 99
e 60 100
e 61 62
e 61 63
e 61 65
e 61 68
e 61 69
e 61 70
e 61 74
e 61 75
e 61 88
e 61 96
e 62 70
e 62 75
e 62 80
e 62 82
e 62 84
e 62 87
e 62 90
e 62 93
e 62 94
e 62 97
e 62 99
e 63 70
e 63 79
e 63 80
e 63 83
e 63 85
e 63 87
e 63 88
e 63 93
e 63 95
e 63 96
e 63 98
e 63 100
e 64 66
e 64 74
e 64 79
e 64 83
e 64 85
e 64 88
e 64 89
e 64 91
e 64 94
e 64 95
e 64 100
e 65 68
e 65 71
e 65 72
e 65 74
e 65 75
e 65 76
e 65 82
e 65 84
e 65 86
e 65 87
e 65 91
e 65 97
e 65 99
e 65 100
e 66 67
e 66 69
e 66 70
e 66 71
e 66 75
e 66 81
e 66 82
e 66 87
e 66 88
e 66 89
e 66 91
e 67 69
e 67 70
e 67 71
e 67 74
e 67 77
e 67 78
e 67 85
e 67 86
e 67 89
e 67 93
e 67 95
e 67 96
e 67 98
e 67 100
e 68 69
e 68 70
e 68 73
e 68 77
e 68 80
e 68 82
e 68 83
e 68 89
e 68 91
e 68 99
e 68 100
e 69 70
e 69 72
e 69 74
e 69 75
e 69 83
e 69 84
e 69 90
e 69 91
e 69 92
e 69 94
e 69 95
e 69 100
e 70 76
e 70 82
e 70 83
e 70 88
e 70 91
e 70 93
e 70 96
e 70 97
e 71 72
e 71 73
e 71 76
e 71 82
e 71 88
e 71 91
e 71 92
e 71 96
e 71 98
e 71 99
e 72 78
e 72 80
e 72 81
e 72 82
e 72 85
e 72 87
e 72 89
e 72 90
e 72 92
e 72 94
e 73 78
e 73 80
e 73 82
e 73 83
e 73 84
e 73 86
e 73 87
e 73 88
e 73 89
e 73 98
e 73 100
e 74 75
e 74 78
e 74 82
e 74 83
e 74 85
e 74 89
e 74 94
e 74 97
e 75 79
e 75 80
e 75 85
e 75 89
e 75 91
e 75 93
e 75 96
e 75 100
e 76 80
e 76 81
e 76 82
e 76 83
e 76 85
e 76 86
e 76 90
e 76 93
e 76 94
e 76 95
e 76 97
e 76 99
e 76 100
e 77 80
e 77 82
e 77 84
e 77 85
e 77 86
e 77 87
e 77 93
e 77 94
e 77 95
e 77 96
e 78 80
e 78 83
e 78 84
e 78 85
e 78 88
e 78 91
e 78 94
e 78 96
e 79 80
e 79 82
e 79 83
e 79 85
e 79 86
e 79 90
e 79 91
e 79 96
e 80 85
e 80 88
e 80 97
e 81 85
e 81 88
e 81 91
e 81 98
e 81 99
e 82 83
e 82 87
e 82 88
e 82 89
e 82 90
e 82 92
e 82 93
e 82 95
e 82 98
e 82 99
e 83 87
e 83 88
e 83 90
e 83 94
e 83 96
e 83 100
e 84 87
e 84 89
e 84 90
e 84 91
e 84 95
e 84 99
e 85 87
e 85 88
e 85 96
e 86 87
e 86 90
e 86 97
e 86 99
e 86 100
e 87 89
e 87 90
e 87 91
e 87 97
e 88 92
e 88 93
e 88 96
e 88 97
e 89 93
e 89 94
e 89 95
e 89 98
e 90 91
e 90 93
e 90 94
e 90 96
e 90 98
e 90 100
e 91 92
e 91 93
e 91 94
e 91 95
e 91 96
e 92 98
e 93 96
e 93 97
e 93 99
e 93 100
e 94 97
e 94 98
e 94 99
e 95 96
e 95 98
e 96 97
e 96 98
e 96 100
e 97 98
e 97 99
